p cnf 361 1
361 0
w 1 0.928705
w 2 1 0
w 2 -1 1
w 3 2 0
w 3 -2 1
w 4 3 0
w 4 -3 1
w 5 4 0
w 5 -4 1
w 6 5 0
w 6 -5 1
w 7 6 1
w 7 -6 0
w 8 7 0
w 8 -7 1
w 9 8 1
w 9 -8 0
w 10 9 0
w 10 -9 1
w 11 10 0
w 11 -10 1
w 12 11 0
w 12 -11 1
w 13 12 1
w 13 -12 0
w 14 13 1
w 14 -13 0
w 15 14 1
w 15 -14 0
w 16 15 0
w 16 -15 1
w 17 16 1
w 17 -16 0
w 18 17 0.306983
w 18 -17 0.273261
w 19 18 0
w 19 -18 1
w 20 1 0
w 20 -1 1
w 21 20 2 0.232276
w 21 20 -2 0.450191
w 21 -20 2 0.175433
w 21 -20 -2 0.547196
w 22 21 3 0
w 22 21 -3 0
w 22 -21 3 1
w 22 -21 -3 0
w 23 22 4 0
w 23 22 -4 1
w 23 -22 4 1
w 23 -22 -4 1
w 24 23 5 1
w 24 23 -5 1
w 24 -23 5 0
w 24 -23 -5 0
w 25 24 6 0
w 25 24 -6 1
w 25 -24 6 0
w 25 -24 -6 0
w 26 25 7 0
w 26 25 -7 0
w 26 -25 7 1
w 26 -25 -7 1
w 27 26 8 0
w 27 26 -8 0
w 27 -26 8 0
w 27 -26 -8 1
w 28 27 9 0
w 28 27 -9 0
w 28 -27 9 1
w 28 -27 -9 0
w 29 28 10 0
w 29 28 -10 0
w 29 -28 10 1
w 29 -28 -10 1
w 30 29 11 0
w 30 29 -11 0
w 30 -29 11 1
w 30 -29 -11 0
w 31 30 12 0
w 31 30 -12 0
w 31 -30 12 1
w 31 -30 -12 0
w 32 31 13 0
w 32 31 -13 1
w 32 -31 13 0
w 32 -31 -13 1
w 33 32 14 0
w 33 32 -14 1
w 33 -32 14 0
w 33 -32 -14 1
w 34 33 15 1
w 34 33 -15 1
w 34 -33 15 0
w 34 -33 -15 0
w 35 34 16 1
w 35 34 -16 0
w 35 -34 16 0
w 35 -34 -16 0
w 36 35 17 0
w 36 35 -17 0
w 36 -35 17 0
w 36 -35 -17 1
w 37 36 18 1
w 37 36 -18 0
w 37 -36 18 0
w 37 -36 -18 0
w 38 37 19 0
w 38 37 -19 1
w 38 -37 19 0
w 38 -37 -19 1
w 39 20 1
w 39 -20 0
w 40 39 21 0
w 40 39 -21 0
w 40 -39 21 0
w 40 -39 -21 1
w 41 40 22 1
w 41 40 -22 1
w 41 -40 22 1
w 41 -40 -22 0
w 42 41 23 0.621525
w 42 41 -23 0.644435
w 42 -41 23 0.00942397
w 42 -41 -23 0.8381
w 43 42 24 0.708656
w 43 42 -24 0.077701
w 43 -42 24 0.384471
w 43 -42 -24 0.600923
w 44 43 25 0
w 44 43 -25 1
w 44 -43 25 0
w 44 -43 -25 0
w 45 44 26 0
w 45 44 -26 1
w 45 -44 26 0
w 45 -44 -26 1
w 46 45 27 0
w 46 45 -27 1
w 46 -45 27 0
w 46 -45 -27 0
w 47 46 28 1
w 47 46 -28 0
w 47 -46 28 1
w 47 -46 -28 1
w 48 47 29 1
w 48 47 -29 0
w 48 -47 29 1
w 48 -47 -29 1
w 49 48 30 0.404151
w 49 48 -30 0.435268
w 49 -48 30 0.29774
w 49 -48 -30 0.00507424
w 50 49 31 0.470143
w 50 49 -31 0.4499
w 50 -49 31 0.38975
w 50 -49 -31 0.232144
w 51 50 32 0
w 51 50 -32 0
w 51 -50 32 0
w 51 -50 -32 1
w 52 51 33 0
w 52 51 -33 1
w 52 -51 33 0
w 52 -51 -33 1
w 53 52 34 1
w 53 52 -34 0
w 53 -52 34 1
w 53 -52 -34 0
w 54 53 35 1
w 54 53 -35 1
w 54 -53 35 0
w 54 -53 -35 0
w 55 54 36 1
w 55 54 -36 0
w 55 -54 36 0
w 55 -54 -36 1
w 56 55 37 0
w 56 55 -37 1
w 56 -55 37 0
w 56 -55 -37 0
w 57 56 38 0
w 57 56 -38 1
w 57 -56 38 1
w 57 -56 -38 1
w 58 39 1
w 58 -39 0
w 59 58 40 1
w 59 58 -40 0
w 59 -58 40 0
w 59 -58 -40 0
w 60 59 41 0.00323693
w 60 59 -41 0.408588
w 60 -59 41 0.641459
w 60 -59 -41 0.598611
w 61 60 42 1
w 61 60 -42 1
w 61 -60 42 1
w 61 -60 -42 0
w 62 61 43 0
w 62 61 -43 1
w 62 -61 43 1
w 62 -61 -43 0
w 63 62 44 1
w 63 62 -44 0
w 63 -62 44 0
w 63 -62 -44 0
w 64 63 45 1
w 64 63 -45 1
w 64 -63 45 1
w 64 -63 -45 0
w 65 64 46 0
w 65 64 -46 1
w 65 -64 46 1
w 65 -64 -46 0
w 66 65 47 0
w 66 65 -47 1
w 66 -65 47 1
w 66 -65 -47 1
w 67 66 48 0.552949
w 67 66 -48 0.822511
w 67 -66 48 0.809208
w 67 -66 -48 0.782691
w 68 67 49 1
w 68 67 -49 1
w 68 -67 49 1
w 68 -67 -49 0
w 69 68 50 0
w 69 68 -50 1
w 69 -68 50 1
w 69 -68 -50 0
w 70 69 51 1
w 70 69 -51 1
w 70 -69 51 0
w 70 -69 -51 1
w 71 70 52 0
w 71 70 -52 1
w 71 -70 52 1
w 71 -70 -52 0
w 72 71 53 1
w 72 71 -53 1
w 72 -71 53 0
w 72 -71 -53 0
w 73 72 54 1
w 73 72 -54 0
w 73 -72 54 1
w 73 -72 -54 0
w 74 73 55 1
w 74 73 -55 1
w 74 -73 55 1
w 74 -73 -55 0
w 75 74 56 0.322919
w 75 74 -56 0.574822
w 75 -74 56 0.911362
w 75 -74 -56 0.277509
w 76 75 57 0.375703
w 76 75 -57 0.437966
w 76 -75 57 0.494476
w 76 -75 -57 0.173735
w 77 58 0
w 77 -58 1
w 78 77 59 1
w 78 77 -59 1
w 78 -77 59 0
w 78 -77 -59 0
w 79 78 60 1
w 79 78 -60 0
w 79 -78 60 0
w 79 -78 -60 0
w 80 79 61 0
w 80 79 -61 0
w 80 -79 61 0
w 80 -79 -61 1
w 81 80 62 0
w 81 80 -62 1
w 81 -80 62 0
w 81 -80 -62 0
w 82 81 63 0.206144
w 82 81 -63 0.62403
w 82 -81 63 0.981937
w 82 -81 -63 0.581847
w 83 82 64 1
w 83 82 -64 1
w 83 -82 64 0
w 83 -82 -64 1
w 84 83 65 0.00453448
w 84 83 -65 0.632728
w 84 -83 65 0.48686
w 84 -83 -65 0.320804
w 85 84 66 0
w 85 84 -66 0
w 85 -84 66 0
w 85 -84 -66 1
w 86 85 67 0
w 86 85 -67 1
w 86 -85 67 1
w 86 -85 -67 1
w 87 86 68 1
w 87 86 -68 1
w 87 -86 68 1
w 87 -86 -68 0
w 88 87 69 0.39525
w 88 87 -69 0.243689
w 88 -87 69 0.960672
w 88 -87 -69 0.977096
w 89 88 70 0
w 89 88 -70 1
w 89 -88 70 1
w 89 -88 -70 1
w 90 89 71 1
w 90 89 -71 0
w 90 -89 71 1
w 90 -89 -71 1
w 91 90 72 0
w 91 90 -72 1
w 91 -90 72 0
w 91 -90 -72 1
w 92 91 73 0
w 92 91 -73 0
w 92 -91 73 1
w 92 -91 -73 1
w 93 92 74 0
w 93 92 -74 0
w 93 -92 74 1
w 93 -92 -74 1
w 94 93 75 1
w 94 93 -75 1
w 94 -93 75 0
w 94 -93 -75 0
w 95 94 76 1
w 95 94 -76 0
w 95 -94 76 0
w 95 -94 -76 1
w 96 77 1
w 96 -77 0
w 97 96 78 0
w 97 96 -78 0
w 97 -96 78 1
w 97 -96 -78 0
w 98 97 79 0
w 98 97 -79 0
w 98 -97 79 1
w 98 -97 -79 0
w 99 98 80 1
w 99 98 -80 1
w 99 -98 80 0
w 99 -98 -80 1
w 100 99 81 1
w 100 99 -81 0
w 100 -99 81 1
w 100 -99 -81 1
w 101 100 82 0
w 101 100 -82 1
w 101 -100 82 0
w 101 -100 -82 1
w 102 101 83 0
w 102 101 -83 1
w 102 -101 83 1
w 102 -101 -83 1
w 103 102 84 1
w 103 102 -84 1
w 103 -102 84 0
w 103 -102 -84 0
w 104 103 85 1
w 104 103 -85 0
w 104 -103 85 1
w 104 -103 -85 1
w 105 104 86 0
w 105 104 -86 1
w 105 -104 86 0
w 105 -104 -86 0
w 106 105 87 1
w 106 105 -87 0
w 106 -105 87 1
w 106 -105 -87 0
w 107 106 88 1
w 107 106 -88 1
w 107 -106 88 1
w 107 -106 -88 0
w 108 107 89 0
w 108 107 -89 0
w 108 -107 89 1
w 108 -107 -89 1
w 109 108 90 0
w 109 108 -90 0
w 109 -108 90 1
w 109 -108 -90 1
w 110 109 91 1
w 110 109 -91 0
w 110 -109 91 1
w 110 -109 -91 0
w 111 110 92 0.4982
w 111 110 -92 0.235579
w 111 -110 92 0.913856
w 111 -110 -92 0.73221
w 112 111 93 1
w 112 111 -93 1
w 112 -111 93 1
w 112 -111 -93 0
w 113 112 94 1
w 113 112 -94 0
w 113 -112 94 0
w 113 -112 -94 0
w 114 113 95 0
w 114 113 -95 0
w 114 -113 95 0
w 114 -113 -95 1
w 115 96 1
w 115 -96 0
w 116 115 97 0
w 116 115 -97 0
w 116 -115 97 0
w 116 -115 -97 1
w 117 116 98 1
w 117 116 -98 1
w 117 -116 98 0
w 117 -116 -98 0
w 118 117 99 0
w 118 117 -99 0
w 118 -117 99 0
w 118 -117 -99 1
w 119 118 100 1
w 119 118 -100 0
w 119 -118 100 1
w 119 -118 -100 1
w 120 119 101 0
w 120 119 -101 1
w 120 -119 101 0
w 120 -119 -101 0
w 121 120 102 0.100133
w 121 120 -102 0.171448
w 121 -120 102 0.771812
w 121 -120 -102 0.821601
w 122 121 103 1
w 122 121 -103 0
w 122 -121 103 1
w 122 -121 -103 0
w 123 122 104 1
w 123 122 -104 0
w 123 -122 104 1
w 123 -122 -104 1
w 124 123 105 0
w 124 123 -105 0
w 124 -123 105 0
w 124 -123 -105 1
w 125 124 106 1
w 125 124 -106 1
w 125 -124 106 1
w 125 -124 -106 0
w 126 125 107 1
w 126 125 -107 0
w 126 -125 107 0
w 126 -125 -107 1
w 127 126 108 1
w 127 126 -108 0
w 127 -126 108 1
w 127 -126 -108 1
w 128 127 109 1
w 128 127 -109 1
w 128 -127 109 0
w 128 -127 -109 1
w 129 128 110 1
w 129 128 -110 0
w 129 -128 110 1
w 129 -128 -110 1
w 130 129 111 0.54278
w 130 129 -111 0.535647
w 130 -129 111 0.042665
w 130 -129 -111 0.916172
w 131 130 112 0
w 131 130 -112 0
w 131 -130 112 0
w 131 -130 -112 1
w 132 131 113 1
w 132 131 -113 1
w 132 -131 113 0
w 132 -131 -113 1
w 133 132 114 0
w 133 132 -114 0
w 133 -132 114 1
w 133 -132 -114 0
w 134 115 0
w 134 -115 1
w 135 134 116 1
w 135 134 -116 0
w 135 -134 116 0
w 135 -134 -116 0
w 136 135 117 0
w 136 135 -117 1
w 136 -135 117 0
w 136 -135 -117 0
w 137 136 118 1
w 137 136 -118 0
w 137 -136 118 0
w 137 -136 -118 0
w 138 137 119 0
w 138 137 -119 0
w 138 -137 119 0
w 138 -137 -119 1
w 139 138 120 0
w 139 138 -120 1
w 139 -138 120 1
w 139 -138 -120 1
w 140 139 121 0
w 140 139 -121 0
w 140 -139 121 1
w 140 -139 -121 0
w 141 140 122 0
w 141 140 -122 0
w 141 -140 122 1
w 141 -140 -122 0
w 142 141 123 1
w 142 141 -123 0
w 142 -141 123 0
w 142 -141 -123 0
w 143 142 124 0
w 143 142 -124 0
w 143 -142 124 0
w 143 -142 -124 1
w 144 143 125 0
w 144 143 -125 1
w 144 -143 125 0
w 144 -143 -125 1
w 145 144 126 1
w 145 144 -126 0
w 145 -144 126 1
w 145 -144 -126 1
w 146 145 127 0
w 146 145 -127 1
w 146 -145 127 1
w 146 -145 -127 0
w 147 146 128 1
w 147 146 -128 0
w 147 -146 128 1
w 147 -146 -128 1
w 148 147 129 1
w 148 147 -129 1
w 148 -147 129 1
w 148 -147 -129 0
w 149 148 130 0
w 149 148 -130 1
w 149 -148 130 0
w 149 -148 -130 1
w 150 149 131 1
w 150 149 -131 1
w 150 -149 131 0
w 150 -149 -131 1
w 151 150 132 0.178746
w 151 150 -132 0.637405
w 151 -150 132 0.694618
w 151 -150 -132 0.718252
w 152 151 133 0
w 152 151 -133 1
w 152 -151 133 0
w 152 -151 -133 1
w 153 134 1
w 153 -134 0
w 154 153 135 1
w 154 153 -135 0
w 154 -153 135 0
w 154 -153 -135 1
w 155 154 136 0
w 155 154 -136 0
w 155 -154 136 1
w 155 -154 -136 0
w 156 155 137 0
w 156 155 -137 1
w 156 -155 137 1
w 156 -155 -137 1
w 157 156 138 0
w 157 156 -138 0
w 157 -156 138 0
w 157 -156 -138 1
w 158 157 139 1
w 158 157 -139 0
w 158 -157 139 0
w 158 -157 -139 0
w 159 158 140 0
w 159 158 -140 1
w 159 -158 140 0
w 159 -158 -140 1
w 160 159 141 0.587616
w 160 159 -141 0.38796
w 160 -159 141 0.825938
w 160 -159 -141 0.304149
w 161 160 142 1
w 161 160 -142 1
w 161 -160 142 0
w 161 -160 -142 1
w 162 161 143 0
w 162 161 -143 0
w 162 -161 143 1
w 162 -161 -143 1
w 163 162 144 1
w 163 162 -144 1
w 163 -162 144 0
w 163 -162 -144 1
w 164 163 145 1
w 164 163 -145 0
w 164 -163 145 1
w 164 -163 -145 1
w 165 164 146 1
w 165 164 -146 0
w 165 -164 146 0
w 165 -164 -146 0
w 166 165 147 0
w 166 165 -147 0
w 166 -165 147 0
w 166 -165 -147 1
w 167 166 148 1
w 167 166 -148 0
w 167 -166 148 0
w 167 -166 -148 0
w 168 167 149 0
w 168 167 -149 0
w 168 -167 149 1
w 168 -167 -149 1
w 169 168 150 0
w 169 168 -150 1
w 169 -168 150 0
w 169 -168 -150 0
w 170 169 151 1
w 170 169 -151 1
w 170 -169 151 1
w 170 -169 -151 0
w 171 170 152 1
w 171 170 -152 1
w 171 -170 152 0
w 171 -170 -152 1
w 172 153 1
w 172 -153 0
w 173 172 154 0
w 173 172 -154 1
w 173 -172 154 0
w 173 -172 -154 0
w 174 173 155 0
w 174 173 -155 1
w 174 -173 155 0
w 174 -173 -155 0
w 175 174 156 0.0826644
w 175 174 -156 0.907985
w 175 -174 156 0.350716
w 175 -174 -156 0.340024
w 176 175 157 0
w 176 175 -157 1
w 176 -175 157 0
w 176 -175 -157 0
w 177 176 158 0
w 177 176 -158 1
w 177 -176 158 1
w 177 -176 -158 1
w 178 177 159 1
w 178 177 -159 1
w 178 -177 159 0
w 178 -177 -159 1
w 179 178 160 1
w 179 178 -160 0
w 179 -178 160 0
w 179 -178 -160 1
w 180 179 161 1
w 180 179 -161 0
w 180 -179 161 1
w 180 -179 -161 1
w 181 180 162 0
w 181 180 -162 1
w 181 -180 162 1
w 181 -180 -162 0
w 182 181 163 0
w 182 181 -163 1
w 182 -181 163 1
w 182 -181 -163 1
w 183 182 164 0
w 183 182 -164 1
w 183 -182 164 1
w 183 -182 -164 1
w 184 183 165 0
w 184 183 -165 0
w 184 -183 165 0
w 184 -183 -165 1
w 185 184 166 1
w 185 184 -166 0
w 185 -184 166 1
w 185 -184 -166 0
w 186 185 167 0
w 186 185 -167 1
w 186 -185 167 0
w 186 -185 -167 0
w 187 186 168 0
w 187 186 -168 1
w 187 -186 168 0
w 187 -186 -168 1
w 188 187 169 1
w 188 187 -169 0
w 188 -187 169 1
w 188 -187 -169 0
w 189 188 170 1
w 189 188 -170 0
w 189 -188 170 1
w 189 -188 -170 0
w 190 189 171 0.88974
w 190 189 -171 0.158589
w 190 -189 171 0.450394
w 190 -189 -171 0.647239
w 191 172 1
w 191 -172 0
w 192 191 173 0
w 192 191 -173 0
w 192 -191 173 0
w 192 -191 -173 1
w 193 192 174 1
w 193 192 -174 1
w 193 -192 174 1
w 193 -192 -174 0
w 194 193 175 0
w 194 193 -175 0
w 194 -193 175 1
w 194 -193 -175 0
w 195 194 176 1
w 195 194 -176 1
w 195 -194 176 1
w 195 -194 -176 0
w 196 195 177 0
w 196 195 -177 1
w 196 -195 177 0
w 196 -195 -177 1
w 197 196 178 0.213638
w 197 196 -178 0.652841
w 197 -196 178 0.554807
w 197 -196 -178 0.378105
w 198 197 179 1
w 198 197 -179 0
w 198 -197 179 1
w 198 -197 -179 0
w 199 198 180 0.27178
w 199 198 -180 0.415056
w 199 -198 180 0.633194
w 199 -198 -180 0.784704
w 200 199 181 1
w 200 199 -181 1
w 200 -199 181 0
w 200 -199 -181 0
w 201 200 182 0.592453
w 201 200 -182 0.500836
w 201 -200 182 0.0768773
w 201 -200 -182 0.773767
w 202 201 183 0
w 202 201 -183 1
w 202 -201 183 1
w 202 -201 -183 0
w 203 202 184 1
w 203 202 -184 0
w 203 -202 184 0
w 203 -202 -184 1
w 204 203 185 1
w 204 203 -185 0
w 204 -203 185 1
w 204 -203 -185 0
w 205 204 186 1
w 205 204 -186 0
w 205 -204 186 0
w 205 -204 -186 0
w 206 205 187 0
w 206 205 -187 1
w 206 -205 187 0
w 206 -205 -187 0
w 207 206 188 0.3237
w 207 206 -188 0.208486
w 207 -206 188 0.475134
w 207 -206 -188 0.400577
w 208 207 189 0.341694
w 208 207 -189 0.186074
w 208 -207 189 0.985045
w 208 -207 -189 0.226082
w 209 208 190 0
w 209 208 -190 0
w 209 -208 190 1
w 209 -208 -190 1
w 210 191 0
w 210 -191 1
w 211 210 192 0
w 211 210 -192 0
w 211 -210 192 0
w 211 -210 -192 1
w 212 211 193 0
w 212 211 -193 1
w 212 -211 193 1
w 212 -211 -193 0
w 213 212 194 0.679579
w 213 212 -194 0.237299
w 213 -212 194 0.956752
w 213 -212 -194 0.00327855
w 214 213 195 0
w 214 213 -195 1
w 214 -213 195 1
w 214 -213 -195 1
w 215 214 196 0
w 215 214 -196 1
w 215 -214 196 1
w 215 -214 -196 1
w 216 215 197 0
w 216 215 -197 0
w 216 -215 197 1
w 216 -215 -197 0
w 217 216 198 1
w 217 216 -198 0
w 217 -216 198 1
w 217 -216 -198 0
w 218 217 199 0.633341
w 218 217 -199 0.576993
w 218 -217 199 0.261383
w 218 -217 -199 0.254608
w 219 218 200 0
w 219 218 -200 1
w 219 -218 200 0
w 219 -218 -200 0
w 220 219 201 0.948084
w 220 219 -201 0.348096
w 220 -219 201 0.36573
w 220 -219 -201 0.721664
w 221 220 202 0.778813
w 221 220 -202 0.721325
w 221 -220 202 0.554577
w 221 -220 -202 0.38218
w 222 221 203 1
w 222 221 -203 1
w 222 -221 203 1
w 222 -221 -203 0
w 223 222 204 1
w 223 222 -204 1
w 223 -222 204 0
w 223 -222 -204 0
w 224 223 205 0
w 224 223 -205 0
w 224 -223 205 1
w 224 -223 -205 0
w 225 224 206 0
w 225 224 -206 1
w 225 -224 206 1
w 225 -224 -206 1
w 226 225 207 0
w 226 225 -207 0
w 226 -225 207 1
w 226 -225 -207 1
w 227 226 208 0
w 227 226 -208 1
w 227 -226 208 0
w 227 -226 -208 1
w 228 227 209 1
w 228 227 -209 0
w 228 -227 209 0
w 228 -227 -209 1
w 229 210 0
w 229 -210 1
w 230 229 211 1
w 230 229 -211 0
w 230 -229 211 1
w 230 -229 -211 0
w 231 230 212 1
w 231 230 -212 0
w 231 -230 212 0
w 231 -230 -212 0
w 232 231 213 0
w 232 231 -213 1
w 232 -231 213 1
w 232 -231 -213 1
w 233 232 214 0
w 233 232 -214 1
w 233 -232 214 0
w 233 -232 -214 1
w 234 233 215 1
w 234 233 -215 0
w 234 -233 215 0
w 234 -233 -215 0
w 235 234 216 1
w 235 234 -216 1
w 235 -234 216 0
w 235 -234 -216 0
w 236 235 217 0.938803
w 236 235 -217 0.218207
w 236 -235 217 0.853159
w 236 -235 -217 0.416363
w 237 236 218 1
w 237 236 -218 0
w 237 -236 218 1
w 237 -236 -218 1
w 238 237 219 1
w 238 237 -219 1
w 238 -237 219 0
w 238 -237 -219 1
w 239 238 220 1
w 239 238 -220 0
w 239 -238 220 1
w 239 -238 -220 0
w 240 239 221 1
w 240 239 -221 0
w 240 -239 221 1
w 240 -239 -221 1
w 241 240 222 1
w 241 240 -222 1
w 241 -240 222 1
w 241 -240 -222 0
w 242 241 223 0
w 242 241 -223 1
w 242 -241 223 0
w 242 -241 -223 1
w 243 242 224 1
w 243 242 -224 0
w 243 -242 224 0
w 243 -242 -224 1
w 244 243 225 0
w 244 243 -225 0
w 244 -243 225 1
w 244 -243 -225 0
w 245 244 226 0
w 245 244 -226 1
w 245 -244 226 1
w 245 -244 -226 1
w 246 245 227 0
w 246 245 -227 0
w 246 -245 227 1
w 246 -245 -227 1
w 247 246 228 1
w 247 246 -228 0
w 247 -246 228 1
w 247 -246 -228 1
w 248 229 1
w 248 -229 0
w 249 248 230 0
w 249 248 -230 1
w 249 -248 230 0
w 249 -248 -230 0
w 250 249 231 1
w 250 249 -231 1
w 250 -249 231 1
w 250 -249 -231 0
w 251 250 232 1
w 251 250 -232 0
w 251 -250 232 0
w 251 -250 -232 1
w 252 251 233 1
w 252 251 -233 0
w 252 -251 233 0
w 252 -251 -233 0
w 253 252 234 1
w 253 252 -234 0
w 253 -252 234 1
w 253 -252 -234 0
w 254 253 235 0.440815
w 254 253 -235 0.92844
w 254 -253 235 0.800176
w 254 -253 -235 0.25849
w 255 254 236 1
w 255 254 -236 1
w 255 -254 236 0
w 255 -254 -236 1
w 256 255 237 1
w 256 255 -237 0
w 256 -255 237 0
w 256 -255 -237 0
w 257 256 238 0
w 257 256 -238 1
w 257 -256 238 1
w 257 -256 -238 1
w 258 257 239 0.84683
w 258 257 -239 0.996884
w 258 -257 239 0.848459
w 258 -257 -239 0.323758
w 259 258 240 1
w 259 258 -240 0
w 259 -258 240 0
w 259 -258 -240 0
w 260 259 241 1
w 260 259 -241 1
w 260 -259 241 0
w 260 -259 -241 0
w 261 260 242 0
w 261 260 -242 1
w 261 -260 242 0
w 261 -260 -242 0
w 262 261 243 0.432475
w 262 261 -243 0.719764
w 262 -261 243 0.0455752
w 262 -261 -243 0.0963007
w 263 262 244 1
w 263 262 -244 0
w 263 -262 244 1
w 263 -262 -244 0
w 264 263 245 0
w 264 263 -245 0
w 264 -263 245 0
w 264 -263 -245 1
w 265 264 246 0
w 265 264 -246 1
w 265 -264 246 1
w 265 -264 -246 1
w 266 265 247 0
w 266 265 -247 1
w 266 -265 247 1
w 266 -265 -247 1
w 267 248 1
w 267 -248 0
w 268 267 249 1
w 268 267 -249 1
w 268 -267 249 0
w 268 -267 -249 0
w 269 268 250 0
w 269 268 -250 1
w 269 -268 250 0
w 269 -268 -250 1
w 270 269 251 1
w 270 269 -251 1
w 270 -269 251 0
w 270 -269 -251 1
w 271 270 252 0
w 271 270 -252 0
w 271 -270 252 1
w 271 -270 -252 1
w 272 271 253 0
w 272 271 -253 1
w 272 -271 253 0
w 272 -271 -253 1
w 273 272 254 1
w 273 272 -254 1
w 273 -272 254 1
w 273 -272 -254 0
w 274 273 255 0
w 274 273 -255 1
w 274 -273 255 1
w 274 -273 -255 0
w 275 274 256 0
w 275 274 -256 1
w 275 -274 256 0
w 275 -274 -256 1
w 276 275 257 0.461893
w 276 275 -257 0.348167
w 276 -275 257 0.482867
w 276 -275 -257 0.890127
w 277 276 258 0
w 277 276 -258 1
w 277 -276 258 0
w 277 -276 -258 1
w 278 277 259 0
w 278 277 -259 1
w 278 -277 259 1
w 278 -277 -259 1
w 279 278 260 1
w 279 278 -260 0
w 279 -278 260 0
w 279 -278 -260 0
w 280 279 261 0
w 280 279 -261 1
w 280 -279 261 0
w 280 -279 -261 0
w 281 280 262 0
w 281 280 -262 0
w 281 -280 262 0
w 281 -280 -262 1
w 282 281 263 0
w 282 281 -263 0
w 282 -281 263 0
w 282 -281 -263 1
w 283 282 264 0
w 283 282 -264 0
w 283 -282 264 0
w 283 -282 -264 1
w 284 283 265 0.907449
w 284 283 -265 0.606533
w 284 -283 265 0.80371
w 284 -283 -265 0.310176
w 285 284 266 1
w 285 284 -266 0
w 285 -284 266 0
w 285 -284 -266 1
w 286 267 0
w 286 -267 1
w 287 286 268 0
w 287 286 -268 1
w 287 -286 268 0
w 287 -286 -268 0
w 288 287 269 0
w 288 287 -269 0
w 288 -287 269 1
w 288 -287 -269 1
w 289 288 270 1
w 289 288 -270 0
w 289 -288 270 0
w 289 -288 -270 0
w 290 289 271 1
w 290 289 -271 1
w 290 -289 271 0
w 290 -289 -271 0
w 291 290 272 0
w 291 290 -272 0
w 291 -290 272 0
w 291 -290 -272 1
w 292 291 273 0
w 292 291 -273 0
w 292 -291 273 0
w 292 -291 -273 1
w 293 292 274 0
w 293 292 -274 1
w 293 -292 274 0
w 293 -292 -274 0
w 294 293 275 0.769321
w 294 293 -275 0.605217
w 294 -293 275 0.700252
w 294 -293 -275 0.764675
w 295 294 276 1
w 295 294 -276 1
w 295 -294 276 1
w 295 -294 -276 0
w 296 295 277 1
w 296 295 -277 1
w 296 -295 277 1
w 296 -295 -277 0
w 297 296 278 1
w 297 296 -278 0
w 297 -296 278 1
w 297 -296 -278 0
w 298 297 279 1
w 298 297 -279 0
w 298 -297 279 0
w 298 -297 -279 1
w 299 298 280 0
w 299 298 -280 1
w 299 -298 280 1
w 299 -298 -280 1
w 300 299 281 1
w 300 299 -281 0
w 300 -299 281 0
w 300 -299 -281 0
w 301 300 282 1
w 301 300 -282 0
w 301 -300 282 1
w 301 -300 -282 1
w 302 301 283 1
w 302 301 -283 0
w 302 -301 283 1
w 302 -301 -283 0
w 303 302 284 0
w 303 302 -284 1
w 303 -302 284 1
w 303 -302 -284 1
w 304 303 285 1
w 304 303 -285 0
w 304 -303 285 0
w 304 -303 -285 1
w 305 286 1
w 305 -286 0
w 306 305 287 1
w 306 305 -287 0
w 306 -305 287 1
w 306 -305 -287 1
w 307 306 288 1
w 307 306 -288 1
w 307 -306 288 0
w 307 -306 -288 1
w 308 307 289 0
w 308 307 -289 0
w 308 -307 289 1
w 308 -307 -289 0
w 309 308 290 0
w 309 308 -290 1
w 309 -308 290 1
w 309 -308 -290 0
w 310 309 291 0.802196
w 310 309 -291 0.843671
w 310 -309 291 0.21785
w 310 -309 -291 0.163851
w 311 310 292 1
w 311 310 -292 0
w 311 -310 292 0
w 311 -310 -292 1
w 312 311 293 0
w 312 311 -293 0
w 312 -311 293 0
w 312 -311 -293 1
w 313 312 294 0
w 313 312 -294 0
w 313 -312 294 0
w 313 -312 -294 1
w 314 313 295 1
w 314 313 -295 1
w 314 -313 295 1
w 314 -313 -295 0
w 315 314 296 1
w 315 314 -296 0
w 315 -314 296 1
w 315 -314 -296 0
w 316 315 297 0.0721351
w 316 315 -297 0.870179
w 316 -315 297 0.839551
w 316 -315 -297 0.289985
w 317 316 298 1
w 317 316 -298 0
w 317 -316 298 0
w 317 -316 -298 1
w 318 317 299 0
w 318 317 -299 1
w 318 -317 299 0
w 318 -317 -299 1
w 319 318 300 1
w 319 318 -300 1
w 319 -318 300 0
w 319 -318 -300 0
w 320 319 301 1
w 320 319 -301 1
w 320 -319 301 0
w 320 -319 -301 0
w 321 320 302 0
w 321 320 -302 1
w 321 -320 302 0
w 321 -320 -302 1
w 322 321 303 1
w 322 321 -303 0
w 322 -321 303 1
w 322 -321 -303 1
w 323 322 304 1
w 323 322 -304 0
w 323 -322 304 0
w 323 -322 -304 0
w 324 305 0
w 324 -305 1
w 325 324 306 0
w 325 324 -306 0
w 325 -324 306 1
w 325 -324 -306 0
w 326 325 307 1
w 326 325 -307 0
w 326 -325 307 1
w 326 -325 -307 1
w 327 326 308 0
w 327 326 -308 1
w 327 -326 308 0
w 327 -326 -308 0
w 328 327 309 1
w 328 327 -309 0
w 328 -327 309 1
w 328 -327 -309 1
w 329 328 310 1
w 329 328 -310 1
w 329 -328 310 0
w 329 -328 -310 1
w 330 329 311 1
w 330 329 -311 0
w 330 -329 311 0
w 330 -329 -311 0
w 331 330 312 1
w 331 330 -312 1
w 331 -330 312 0
w 331 -330 -312 0
w 332 331 313 1
w 332 331 -313 1
w 332 -331 313 0
w 332 -331 -313 1
w 333 332 314 1
w 333 332 -314 1
w 333 -332 314 0
w 333 -332 -314 1
w 334 333 315 0
w 334 333 -315 1
w 334 -333 315 1
w 334 -333 -315 1
w 335 334 316 0
w 335 334 -316 0
w 335 -334 316 1
w 335 -334 -316 1
w 336 335 317 1
w 336 335 -317 0
w 336 -335 317 0
w 336 -335 -317 0
w 337 336 318 1
w 337 336 -318 1
w 337 -336 318 0
w 337 -336 -318 0
w 338 337 319 1
w 338 337 -319 1
w 338 -337 319 1
w 338 -337 -319 0
w 339 338 320 0.882829
w 339 338 -320 0.970247
w 339 -338 320 0.797472
w 339 -338 -320 0.698578
w 340 339 321 1
w 340 339 -321 1
w 340 -339 321 1
w 340 -339 -321 0
w 341 340 322 1
w 341 340 -322 0
w 341 -340 322 1
w 341 -340 -322 0
w 342 341 323 0.540623
w 342 341 -323 0.639901
w 342 -341 323 0.200656
w 342 -341 -323 0.329908
w 343 324 0
w 343 -324 1
w 344 343 325 0
w 344 343 -325 0
w 344 -343 325 1
w 344 -343 -325 1
w 345 344 326 0.192387
w 345 344 -326 0.614477
w 345 -344 326 0.515203
w 345 -344 -326 0.137995
w 346 345 327 0
w 346 345 -327 0
w 346 -345 327 1
w 346 -345 -327 0
w 347 346 328 0
w 347 346 -328 1
w 347 -346 328 1
w 347 -346 -328 1
w 348 347 329 1
w 348 347 -329 0
w 348 -347 329 1
w 348 -347 -329 0
w 349 348 330 1
w 349 348 -330 0
w 349 -348 330 1
w 349 -348 -330 0
w 350 349 331 0
w 350 349 -331 1
w 350 -349 331 1
w 350 -349 -331 1
w 351 350 332 1
w 351 350 -332 1
w 351 -350 332 1
w 351 -350 -332 0
w 352 351 333 0
w 352 351 -333 0
w 352 -351 333 0
w 352 -351 -333 1
w 353 352 334 1
w 353 352 -334 1
w 353 -352 334 1
w 353 -352 -334 0
w 354 353 335 0
w 354 353 -335 0
w 354 -353 335 1
w 354 -353 -335 1
w 355 354 336 0
w 355 354 -336 0
w 355 -354 336 0
w 355 -354 -336 1
w 356 355 337 1
w 356 355 -337 1
w 356 -355 337 0
w 356 -355 -337 1
w 357 356 338 0
w 357 356 -338 0
w 357 -356 338 0
w 357 -356 -338 1
w 358 357 339 0
w 358 357 -339 1
w 358 -357 339 1
w 358 -357 -339 1
w 359 358 340 1
w 359 358 -340 0
w 359 -358 340 1
w 359 -358 -340 1
w 360 359 341 0
w 360 359 -341 1
w 360 -359 341 1
w 360 -359 -341 1
w 361 360 342 1
w 361 360 -342 1
w 361 -360 342 0
w 361 -360 -342 1